20	5
0	3	3	2	1
1	2	4	7
2	1	4
3	2	4	17
4	1	16
5	0
6	0
7	2	14	18
8	1	15
9	1	21
10	1	5
11	1	18
12	1	13
13	1	10
14	0
15	2	19	20
16	0
17	1	6
18	1	9
19	1	21
20	1	21
21	0
0	0	0	0	0	0	0
1	5	1	0	2	0	2
2	4	2	3	0	3	1
3	2	3	0	0	3	5
4	2	5	2	4	2	3
5	4	5	0	1	5	5
6	2	0	0	0	4	0
7	4	1	4	4	5	0
8	4	5	1	0	2	5
9	10	3	3	5	2	1
10	2	1	3	0	0	0
11	8	4	1	4	1	0
12	6	4	1	0	3	5
13	6	0	3	3	0	4
14	10	0	1	5	0	1
15	5	1	4	2	0	3
16	9	2	1	3	3	2
17	5	0	5	3	4	0
18	7	3	2	4	4	1
19	1	5	2	5	3	5
20	7	1	3	3	2	0
21	0	0	0	0	0	0
7	7	7	7	7
